50
    1   418   500
    2   151   276
    3   168    26
    4   244    79
    5   146   364
    6   165    18
    7   466   301
    8   452   180
    9   347   193
   10   303   266
   11   271   272
   12   299   347
   13   259   160
   14   370   132
   15   431   133
   16   444   469
   17   182   393
   18   174   212
   19   223   201
   20    58   474
   21   350   357
   22    11   420
   23    92   496
   24   288   475
   25     1     1
   26    43   492
   27   312   458
   28     8   288
   29    98   438
   30   437   375
   31    33   150
   32    88   356
   33   352    16
   34    19    25
   35   388   304
   36   121    41
   37   221   472
   38   335   281
   39   211   344
   40   312   239
   41    64   427
   42   394   338
   43   486   306
   44    47   390
   45   287   403
   46   223   459
   47   125   102
   48    69   290
   49   325   419
   50   414    12
4723
